/*********************************************
    * Lab01 - simple
    * Author: Coso
    * Creation Date: Mar, 2019
    *********************************************/
instance_name = "medium_instance_09_simple";

d = 5;
r = 15;

SCj = [214 236 211 194 208];
Dk = [81 33 87 57 68 35 47 24 88 26 18 14 19 63 46];

Cjk = [[45 85 43 78 83 37 77 49 48 76 37 39 57 83 77]
 [51 78 79 57 64 66 66 77 41 49 65 55 80 39 69]
 [87 38 87 58 52 56 80 42 38 48 37 75 30 69 46]
 [32 80 42 30 41 75 51 84 47 64 49 70 43 33 55]
 [39 74 87 72 55 72 34 79 48 68 40 48 58 83 42]];
